26945
27308
27308
27308
28378
28378
28378
28394
28394
28394
28394
28491
28491
28842
28842
29056
29056
29056
29056
29056
29056
29056
29056
29056
29056
29056
29056
29056
29056
29066
29066
29293
29293
29293
29293
29386
29386
29386
29914
29926
29926
29926
29926
29926
29926
29926
29926
29926
29926
29926
29934
29934
29934
29934
29934
29934
29934
29934
29934
29934
29934
29934
29934
29934
29936
29936
29936
29936
29936
29936
29936
29936
29936
29936
29936
29936
29936
29936
29936
29936
29936
29936
29936
29936
29936
29936
29936
29936
29936
29936
29936
29936
29936
29936
29936
29936
29936
29936
29936
